Average FEM solution duration: 0.8495420003328036 seconds
Point C: Mindlin 3.94, FE 0.7721125928455616, Error 0.8040323368412281
Point D: Mindlin 0.59, FE 0.9055000517434173, Error -0.5347458504125717
Maximum Von Mises stress is 0.14597205511787217 MPa
