Maximum Von Mises stress is 202.8241976496388MPa

x=0
Point C: Mindlin 3.94, FE 0.8820623192175591, Error 0.7761263149194013
Point D: Mindlin 0.59, FE 0.8466175460629478, Error -0.43494499332703024