Element Count,Elapsed Time (s),Max Von Mises Stress (Mpa)
495,0.008830498,0.354509422
1949,0.117931324,0.353004273
7979,1.484291846,0.351298522
15971,3.429574299,0.3509915
