Element Count,Elapsed Time (s),Max Von Mises Stress (Mpa)
497,0.029613,0.352395057
2017,0.352797582,0.35098548
8037,1.397943177,0.3506786
15971,3.810751062,0.35062714
