Element Count,Elapsed Time (s),Max Von Mises Stress (Mpa)
497,0.022162633,0.351565699
2005,0.149916992,0.350263605
7963,1.835810147,0.350563122
16041,2.850472693,0.350563568
