Average FEM solution duration: 1.397943177333218 seconds
Point C: Mindlin 3.94, FE 0.8427225117138922, Error 0.7861110376360679
Point D: Mindlin 0.59, FE 0.8243140167065551, Error -0.3971424011975511
Maximum Von Mises stress is 0.3506785998934983 MPa
